NAME: test1866
TYPE: TSP
DIMENSION: 11
EDGE_WEIGHT_TYPE: EUC_2D
NODE_COORD_SECTION
1 86.52122499856377 40.777126041781656
2 12.541670872018285 86.00887934927927
3 45.929745682237545 49.61242074262708
4 64.36329814930637 51.74762832330185
5 6.206552198848514 49.31431878094899
6 54.23894390914239 83.61528248292403
7 36.782928140475825 71.70548093049622
8 88.86325703898173 60.75151435381646
9 66.58386063679846 67.6393047845157
10 50.926873295732676 62.123009017702145
11 85.06101203723321 59.06223287364364
EOF
